000111111111111111111001000000000000000000011110000000000000000000000000000000000000000000000100001000001000000000000000000000000000000000010000110000101110000110100001111111100000001101001000111111111111111111001000